n = 15;
edge = [| 5, 1 
| 7, 1 
| 9, 1 
| 10, 1 
| 11, 1 
| 14, 1 
| 15, 1 
| 3, 2 
| 8, 2 
| 10, 2 
| 11, 2 
| 12, 2 
| 13, 2 
| 2, 3 
| 4, 3 
| 7, 3 
| 8, 3 
| 11, 3 
| 12, 3 
| 13, 3 
| 14, 3 
| 15, 3 
| 5, 4 
| 7, 4 
| 8, 4 
| 14, 4 
| 1, 5 
| 4, 5 
| 6, 5 
| 11, 5 
| 14, 5 
| 1, 6 
| 2, 6 
| 8, 6 
| 11, 6 
| 13, 6 
| 14, 6 
| 15, 6 
| 2, 7 
| 3, 7 
| 5, 7 
| 9, 7 
| 2, 8 
| 3, 8 
| 4, 8 
| 6, 8 
| 7, 8 
| 9, 8 
| 10, 8 
| 12, 8 
| 3, 9 
| 6, 9 
| 11, 9 
| 12, 9 
| 13, 9 
| 14, 9 
| 1, 10 
| 3, 10 
| 4, 10 
| 6, 10 
| 12, 10 
| 13, 10 
| 3, 11 
| 5, 11 
| 6, 11 
| 13, 11 
| 1, 12 
| 2, 12 
| 4, 12 
| 8, 12 
| 13, 12 
| 14, 12 
| 1, 13 
| 2, 13 
| 4, 13 
| 5, 13 
| 6, 13 
| 10, 13 
| 12, 13 
| 15, 13 
| 1, 14 
| 2, 14 
| 5, 14 
| 6, 14 
| 8, 14 
| 12, 14 
| 3, 15 
| 5, 15 
| 9, 15 
| 10, 15 
| 14, 15 
|];
